certificates/rado_a15_c93_N38.drat
-35 -36 4 -38 0
-36 4 -38 0
d -35 -36 4 -38 0
36 4 0
d 36 3 4 0
4 -38 0
d -36 4 -38 0
6 -38 0
-38 0
-8 -6 0
-6 0
3 0
9 0
35 0
-8 0
33 0
11 0
5 0
-21 0
-23 0
-27 0
-29 0
-15 0
-17 0
24 0
18 0
26 0
20 0
30 0
32 0
2 0
7 0
12 0
14 0
0
